words_hard_train/9827.qaiger
aag 129 16 0 1 113
2
4
12
14
18
22
26
30
34
48
60
72
84
96
108
116
258
6 2 4
8 3 5
10 7 9
16 13 15
20 16 19
24 20 23
28 24 27
32 28 31
36 32 35
38 10 36
40 11 37
42 39 41
44 33 34
46 45 37
50 46 48
52 47 49
54 51 53
56 29 30
58 57 33
62 58 60
64 59 61
66 63 65
68 25 26
70 69 29
74 70 72
76 71 73
78 75 77
80 21 22
82 81 25
86 82 84
88 83 85
90 87 89
92 17 18
94 93 21
98 94 96
100 95 97
102 99 101
104 12 14
106 105 17
110 107 108
112 106 109
114 111 113
118 116 12
120 117 13
122 119 121
124 114 123
126 103 124
128 91 126
130 79 128
132 67 130
134 55 132
136 42 135
138 116 108
140 138 96
142 140 84
144 142 72
146 144 60
148 146 48
150 148 3
152 149 2
154 151 153
156 145 61
158 157 147
160 66 131
162 161 133
164 158 162
166 147 49
168 167 149
170 54 133
172 171 135
174 168 172
176 165 175
178 159 163
180 143 73
182 181 145
184 78 129
186 185 131
188 183 187
190 179 189
192 141 85
194 193 143
196 90 127
198 197 129
200 194 198
202 182 186
204 201 203
206 102 125
208 207 127
210 209 97
212 211 141
214 195 199
216 212 215
218 104 117
220 219 139
222 208 96
224 220 223
226 117 109
228 227 15
230 224 229
232 216 231
234 204 233
236 190 235
238 176 237
240 169 173
242 239 241
244 154 242
246 136 245
248 155 243
250 43 134
252 248 251
254 250 244
256 253 255
258 247 256
i0 2 y2[7]
i1 1 x2[7]
i2 1 x2[0]
i3 1 x2[1]
i4 1 x2[2]
i5 1 x2[3]
i6 1 x2[4]
i7 1 x2[5]
i8 1 x2[6]
i9 2 y2[6]
i10 2 y2[5]
i11 2 y2[4]
i12 2 y2[3]
i13 2 y2[2]
i14 2 y2[1]
i15 2 y2[0]
o0 bv[0]
c
simplified
  >=
    add
      2 y2
      1
    xor
      unary minus
        1 x2
      2 y2
