words_hard_train/9827.qaiger.qdimacs
p cnf 129 340
a 2 6 7 9 11 13 15 17 0
e 1 3 4 5 8 10 12 14 16 18 19 20 21 22 23 24 25 26 27 28 29 30 31 32 33 34 35 36 37 38 39 40 41 42 43 44 45 46 47 48 49 50 51 52 53 54 55 56 57 58 59 60 61 62 63 64 65 66 67 68 69 70 71 72 73 74 75 76 77 78 79 80 81 82 83 84 85 86 87 88 89 90 91 92 93 94 95 96 97 98 99 100 101 102 103 104 105 106 107 108 109 110 111 112 113 114 115 116 117 118 119 120 121 122 123 124 125 126 127 128 129 0
-1 -2 3 0
1 -3 0
2 -3 0
1 2 4 0
-1 -4 0
-2 -4 0
3 4 5 0
-3 -5 0
-4 -5 0
6 7 8 0
-6 -8 0
-7 -8 0
-8 9 10 0
8 -10 0
-9 -10 0
-10 11 12 0
10 -12 0
-11 -12 0
-12 13 14 0
12 -14 0
-13 -14 0
-14 15 16 0
14 -16 0
-15 -16 0
-16 17 18 0
16 -18 0
-17 -18 0
-5 -18 19 0
5 -19 0
18 -19 0
5 18 20 0
-5 -20 0
-18 -20 0
19 20 21 0
-19 -21 0
-20 -21 0
16 -17 22 0
-16 -22 0
17 -22 0
22 18 23 0
-22 -23 0
-18 -23 0
-23 -24 25 0
23 -25 0
24 -25 0
23 24 26 0
-23 -26 0
-24 -26 0
25 26 27 0
-25 -27 0
-26 -27 0
14 -15 28 0
-14 -28 0
15 -28 0
28 16 29 0
-28 -29 0
-16 -29 0
-29 -30 31 0
29 -31 0
30 -31 0
29 30 32 0
-29 -32 0
-30 -32 0
31 32 33 0
-31 -33 0
-32 -33 0
12 -13 34 0
-12 -34 0
13 -34 0
34 14 35 0
-34 -35 0
-14 -35 0
-35 -36 37 0
35 -37 0
36 -37 0
35 36 38 0
-35 -38 0
-36 -38 0
37 38 39 0
-37 -39 0
-38 -39 0
10 -11 40 0
-10 -40 0
11 -40 0
40 12 41 0
-40 -41 0
-12 -41 0
-41 -42 43 0
41 -43 0
42 -43 0
41 42 44 0
-41 -44 0
-42 -44 0
43 44 45 0
-43 -45 0
-44 -45 0
8 -9 46 0
-8 -46 0
9 -46 0
46 10 47 0
-46 -47 0
-10 -47 0
-47 -48 49 0
47 -49 0
48 -49 0
47 48 50 0
-47 -50 0
-48 -50 0
49 50 51 0
-49 -51 0
-50 -51 0
-6 -7 52 0
6 -52 0
7 -52 0
52 8 53 0
-52 -53 0
-8 -53 0
53 -54 55 0
-53 -55 0
54 -55 0
-53 54 56 0
53 -56 0
-54 -56 0
55 56 57 0
-55 -57 0
-56 -57 0
-58 -6 59 0
58 -59 0
6 -59 0
58 6 60 0
-58 -60 0
-6 -60 0
59 60 61 0
-59 -61 0
-60 -61 0
-57 61 62 0
57 -62 0
-61 -62 0
51 -62 63 0
-51 -63 0
62 -63 0
45 -63 64 0
-45 -64 0
63 -64 0
39 -64 65 0
-39 -65 0
64 -65 0
33 -65 66 0
-33 -66 0
65 -66 0
27 -66 67 0
-27 -67 0
66 -67 0
-21 67 68 0
21 -68 0
-67 -68 0
-58 -54 69 0
58 -69 0
54 -69 0
-69 -48 70 0
69 -70 0
48 -70 0
-70 -42 71 0
70 -71 0
42 -71 0
-71 -36 72 0
71 -72 0
36 -72 0
-72 -30 73 0
72 -73 0
30 -73 0
-73 -24 74 0
73 -74 0
24 -74 0
-74 1 75 0
74 -75 0
-1 -75 0
74 -1 76 0
-74 -76 0
1 -76 0
75 76 77 0
-75 -77 0
-76 -77 0
72 30 78 0
-72 -78 0
-30 -78 0
78 73 79 0
-78 -79 0
-73 -79 0
-33 65 80 0
33 -80 0
-65 -80 0
80 66 81 0
-80 -81 0
-66 -81 0
-79 -81 82 0
79 -82 0
81 -82 0
73 24 83 0
-73 -83 0
-24 -83 0
83 74 84 0
-83 -84 0
-74 -84 0
-27 66 85 0
27 -85 0
-66 -85 0
85 67 86 0
-85 -86 0
-67 -86 0
-84 -86 87 0
84 -87 0
86 -87 0
82 87 88 0
-82 -88 0
-87 -88 0
79 81 89 0
-79 -89 0
-81 -89 0
71 36 90 0
-71 -90 0
-36 -90 0
90 72 91 0
-90 -91 0
-72 -91 0
-39 64 92 0
39 -92 0
-64 -92 0
92 65 93 0
-92 -93 0
-65 -93 0
91 93 94 0
-91 -94 0
-93 -94 0
89 94 95 0
-89 -95 0
-94 -95 0
70 42 96 0
-70 -96 0
-42 -96 0
96 71 97 0
-96 -97 0
-71 -97 0
-45 63 98 0
45 -98 0
-63 -98 0
98 64 99 0
-98 -99 0
-64 -99 0
-97 -99 100 0
97 -100 0
99 -100 0
-91 -93 101 0
91 -101 0
93 -101 0
100 101 102 0
-100 -102 0
-101 -102 0
-51 62 103 0
51 -103 0
-62 -103 0
103 63 104 0
-103 -104 0
-63 -104 0
104 48 105 0
-104 -105 0
-48 -105 0
105 70 106 0
-105 -106 0
-70 -106 0
97 99 107 0
-97 -107 0
-99 -107 0
-106 107 108 0
106 -108 0
-107 -108 0
-52 58 109 0
52 -109 0
-58 -109 0
109 69 110 0
-109 -110 0
-69 -110 0
-104 -48 111 0
104 -111 0
48 -111 0
-110 111 112 0
110 -112 0
-111 -112 0
58 54 113 0
-58 -113 0
-54 -113 0
113 7 114 0
-113 -114 0
-7 -114 0
-112 114 115 0
112 -115 0
-114 -115 0
-108 115 116 0
108 -116 0
-115 -116 0
-102 116 117 0
102 -117 0
-116 -117 0
-95 117 118 0
95 -118 0
-117 -118 0
-88 118 119 0
88 -119 0
-118 -119 0
84 86 120 0
-84 -120 0
-86 -120 0
119 120 121 0
-119 -121 0
-120 -121 0
-77 -121 122 0
77 -122 0
121 -122 0
-68 122 123 0
68 -123 0
-122 -123 0
77 121 124 0
-77 -124 0
-121 -124 0
21 -67 125 0
-21 -125 0
67 -125 0
-124 125 126 0
124 -126 0
-125 -126 0
-125 -122 127 0
125 -127 0
122 -127 0
126 127 128 0
-126 -128 0
-127 -128 0
123 -128 129 0
-123 -129 0
128 -129 0
129 0
